width = 31;

n_circuits = 19;

circuit_x = array1d(1..19, [3, 3, 3, 3, 3, 3, 3, 3, 3, 3, 3, 3, 3, 3, 4, 4, 4, 4,
    12]);

circuit_y = array1d(1..19, [3, 4, 5, 6, 7, 8, 9, 10, 11, 12, 13, 14, 22, 31, 3, 7,
    8, 13, 31]);

opt_height = 31;

max_y = 31;

